102370.02
22 23 13 20 32 35 43 47 44 45 34 46 55 64 56 57 65 54 58 59 42 53 66 52 48 36 41 60 61 40 51 67 62 63 50 38 39 49 37 30 28 29 16 4 5 3 132 129 128 108 120 130 131 119 106 107 118 105 98 96 97 85 72 73 68 84 86 95 94 74 75 69 83 87 99 104 109 117 121 133 2 7 6 15 17 27 26 31 18 14 19 25 24 8 9 1 10 124 125 134 126 127 116 110 111 122 115 103 100 92 93 82 76 77 88 81 70 78 79 71 80 89 101 90 91 112 113 102 114 123 135 0 11 12 21 33